LPFile/ns1.lp
Minimize
+ 6.0 x82 + 6.0 x83 + 6.0 x84 + 6.0 x85 + 6.0 x86 + 6.0 x87 + 6.0 x88 + 6.0 x89 + 10.0 x120 + 10.0 x121 + 10.0 x122 + 10.0 x123 + 10.0 x124 + 10.0 x125 + 10.0 x126 + 10.0 x127 + 10.0 x128 + 10.0 x138 + 10.0 x139 + 10.0 x140 + 6.0 x168 + 6.0 x169 + 6.0 x170 + 6.0 x171 + 6.0 x172 + 6.0 x173 + 6.0 x174 + 6.0 x175 + 6.0 x265 + 6.0 x266 + 6.0 x267 + 6.0 x268 + 6.0 x271 + 6.0 x272 + 10.0 x275 + 10.0 x276 + 10.0 x277 + 10.0 x278 + 10.0 x279 + 10.0 x280 + 6.0 x354 + 6.0 x355 + 6.0 x356 + 6.0 x357 + 6.0 x358 + 6.0 x359 + 6.0 x360 + 6.0 x361 + 10.0 x420 + 10.0 x421 + 10.0 x422 + 10.0 x423 + 10.0 x424 + 10.0 x425 + 10.0 x432 + 10.0 x433 + 10.0 x436 + 10.0 x437 + 6.0 x446 + 6.0 x447 + 6.0 x448 + 6.0 x449 + 6.0 x450 + 6.0 x451 + 6.0 x546 + 6.0 x547 + 6.0 x548 + 6.0 x549 + 6.0 x552 + 6.0 x553 + 10.0 x575 + 10.0 x576 + 10.0 x577 + 10.0 x578 + 10.0 x579 + 10.0 x580 + 10.0 x581 + 10.0 x582 + 10.0 x583 + 6.0 x632 + 6.0 x633 + 6.0 x634 + 6.0 x635 + 6.0 x636 + 6.0 x637 + 6.0 x638 + 6.0 x639 + 10.0 x719 + 10.0 x720 + 10.0 x721 + 16.0 x722 + 16.0 x723 + 16.0 x724 + 6.0 x725 + 6.0 x726 + 6.0 x727 
Subject To
r_1: + x1 + x2 + x3 - 1.0 x718  = 0
r_2: - 1.0 x1 + x4 + x5 + x6 - 1.0 x719 - 1.0 x722 - 1.0 x725  = 0
r_3: - 1.0 x2 + x7 + x8 + x9 - 1.0 x720 - 1.0 x723 - 1.0 x726  = 0
r_4: - 1.0 x3 + x10 + x11 + x12 - 1.0 x721 - 1.0 x724 - 1.0 x727  = 0
r_5: - 1.0 x4 + x13 + x14 + x15  = 0
r_6: - 1.0 x5 - 1.0 x7 + x16 + x17 + x18  = 0
r_7: - 1.0 x6 - 1.0 x10 + x19 + x20 + x21  = 0
r_8: - 1.0 x8 + x22 + x23  = 0
r_9: - 1.0 x9 - 1.0 x11 + x24 + x25 + x26  = 0
r_10: - 1.0 x12 + x27 + x28 + x29  = 0
r_11: - 1.0 x13 + x30 + x31 + x32  = 0
r_12: - 1.0 x14 - 1.0 x16 + x33 + x34 + x35  = 0
r_13: - 1.0 x15 - 1.0 x19 + x36 + x37 + x38  = 0
r_14: - 1.0 x17 - 1.0 x22 + x39 + x40  = 0
r_15: - 1.0 x18 - 1.0 x20 - 1.0 x24 + x41 + x42 + x43  = 0
r_16: - 1.0 x21 - 1.0 x27 + x44 + x45 + x46  = 0
r_17: - 1.0 x23 - 1.0 x25 + x47 + x48  = 0
r_18: - 1.0 x26 - 1.0 x28 + x49 + x50 + x51  = 0
r_19: - 1.0 x29 + x52 + x53 + x54  = 0
r_20: - 1.0 x30 + x55 + x56  = 0
r_21: - 1.0 x31 - 1.0 x33 + x57 + x58  = 0
r_22: - 1.0 x32 - 1.0 x36 + x59 + x60  = 0
r_23: - 1.0 x34 - 1.0 x39 + x61  = 0
r_24: - 1.0 x35 - 1.0 x37 - 1.0 x41 + x62 + x63  = 0
r_25: - 1.0 x38 - 1.0 x44 + x64 + x65  = 0
r_26: - 1.0 x40 - 1.0 x42 - 1.0 x47 + x66  = 0
r_27: - 1.0 x43 - 1.0 x45 - 1.0 x49 + x67 + x68  = 0
r_28: - 1.0 x46 - 1.0 x52 + x69 + x70  = 0
r_29: - 1.0 x48 - 1.0 x50 + x71  = 0
r_30: - 1.0 x51 - 1.0 x53 + x72 + x73  = 0
r_31: - 1.0 x54 + x74 + x75  = 0
r_32: - 1.0 x55 + x76 + x77 + x78  = 0
r_33: - 1.0 x56 + x79 + x80 + x81  = 0
r_34: - 1.0 x57 - 1.0 x61 - 1.0 x62 - 1.0 x66 - 1.0 x67 - 1.0 x71 - 1.0 x72 + x82 + x83  = 0
r_35: - 1.0 x58 - 1.0 x59 - 1.0 x63 - 1.0 x64 - 1.0 x68 - 1.0 x69 - 1.0 x73 - 1.0 x74 + x84 + x85 + x86  = 0
r_36: - 1.0 x60 - 1.0 x65 - 1.0 x70 - 1.0 x75 + x87 + x88 + x89  = 0
r_37: - 1.0 x76 - 1.0 x84 + x90 + x91  = 0
r_38: - 1.0 x77 - 1.0 x83 - 1.0 x85 + x92 + x93  = 0
r_39: - 1.0 x78 - 1.0 x80 - 1.0 x86 - 1.0 x88 + x94 + x95  = 0
r_40: - 1.0 x79 - 1.0 x87 + x96 + x97  = 0
r_41: - 1.0 x81 - 1.0 x89 + x98 + x99  = 0
r_42: - 1.0 x82 + x100 + x101  = 0
r_43: - 1.0 x90 + x102 + x103  = 0
r_44: - 1.0 x91 - 1.0 x94 + x104 + x105  = 0
r_45: - 1.0 x92 - 1.0 x101 + x106 + x107  = 0
r_46: - 1.0 x93 + x108 + x109  = 0
r_47: - 1.0 x95 + x110 + x111  = 0
r_48: - 1.0 x96 + x112 + x113  = 0
r_49: - 1.0 x97 - 1.0 x98 + x114 + x115  = 0
r_50: - 1.0 x99 + x116 + x117  = 0
r_51: - 1.0 x100 + x118 + x119  = 0
r_52: - 1.0 x102 - 1.0 x112 + x120 + x121 + x122  = 0
r_53: - 1.0 x103 - 1.0 x104 - 1.0 x113 - 1.0 x114 + x123 + x124 + x125  = 0
r_54: - 1.0 x105 - 1.0 x110 - 1.0 x115 - 1.0 x116 + x126 + x127 + x128  = 0
r_55: - 1.0 x106 - 1.0 x119 + x129 + x130 + x131  = 0
r_56: - 1.0 x107 - 1.0 x108 + x132 + x133 + x134  = 0
r_57: - 1.0 x109 + x135 + x136 + x137  = 0
r_58: - 1.0 x111 - 1.0 x117 + x138 + x139 + x140  = 0
r_59: - 1.0 x118 + x141 + x142 + x143  = 0
r_60: - 1.0 x120 - 1.0 x141 + x144 + x145  = 0
r_61: - 1.0 x121 - 1.0 x142 + x146 + x147  = 0
r_62: - 1.0 x122 - 1.0 x123 - 1.0 x129 - 1.0 x143 + x148 + x149  = 0
r_63: - 1.0 x124 - 1.0 x130 + x150 + x151  = 0
r_64: - 1.0 x125 - 1.0 x126 - 1.0 x131 - 1.0 x132 + x152 + x153  = 0
r_65: - 1.0 x127 - 1.0 x133 + x154 + x155  = 0
r_66: - 1.0 x128 - 1.0 x134 - 1.0 x135 - 1.0 x138 + x156 + x157  = 0
r_67: - 1.0 x136 - 1.0 x139 + x158 + x159  = 0
r_68: - 1.0 x137 - 1.0 x140 + x160 + x161  = 0
r_69: - 1.0 x144 + x162 + x163 + x164  = 0
r_70: - 1.0 x145 + x165 + x166 + x167  = 0
r_71: - 1.0 x146 - 1.0 x150 - 1.0 x154 - 1.0 x158 + x168 + x169  = 0
r_72: - 1.0 x147 - 1.0 x148 - 1.0 x151 - 1.0 x152 - 1.0 x155 - 1.0 x156 - 1.0 x159 - 1.0 x160 + x170 + x171 + x172  = 0
r_73: - 1.0 x149 - 1.0 x153 - 1.0 x157 - 1.0 x161 + x173 + x174 + x175  = 0
r_74: - 1.0 x162 - 1.0 x170 + x176 + x177 + x178  = 0
r_75: - 1.0 x163 - 1.0 x169 - 1.0 x171 + x179 + x180  = 0
r_76: - 1.0 x164 - 1.0 x166 - 1.0 x172 - 1.0 x174 + x181 + x182 + x183  = 0
r_77: - 1.0 x165 - 1.0 x173 + x184 + x185 + x186  = 0
r_78: - 1.0 x167 - 1.0 x175 + x187 + x188 + x189  = 0
r_79: - 1.0 x168 + x190 + x191  = 0
r_80: - 1.0 x176 + x192 + x193 + x194  = 0
r_81: - 1.0 x177 - 1.0 x179 - 1.0 x191 + x195 + x196  = 0
r_82: - 1.0 x178 - 1.0 x181 - 1.0 x185 + x197 + x198 + x199  = 0
r_83: - 1.0 x180 - 1.0 x182 + x200 + x201  = 0
r_84: - 1.0 x183 - 1.0 x188 + x202 + x203 + x204  = 0
r_85: - 1.0 x184 + x205 + x206 + x207  = 0
r_86: - 1.0 x186 - 1.0 x187 + x208 + x209 + x210  = 0
r_87: - 1.0 x189 + x211 + x212 + x213  = 0
r_88: - 1.0 x190 + x214 + x215  = 0
r_89: - 1.0 x192 + x216 + x217 + x218  = 0
r_90: - 1.0 x193 - 1.0 x195 - 1.0 x215 + x219 + x220  = 0
r_91: - 1.0 x194 - 1.0 x197 - 1.0 x206 + x221 + x222 + x223  = 0
r_92: - 1.0 x196 - 1.0 x198 - 1.0 x200 + x224 + x225  = 0
r_93: - 1.0 x199 - 1.0 x202 - 1.0 x209 + x226 + x227 + x228  = 0
r_94: - 1.0 x201 - 1.0 x203 + x229 + x230  = 0
r_95: - 1.0 x204 - 1.0 x212 + x231 + x232 + x233  = 0
r_96: - 1.0 x205 + x234 + x235 + x236  = 0
r_97: - 1.0 x207 - 1.0 x208 + x237 + x238 + x239  = 0
r_98: - 1.0 x210 - 1.0 x211 + x240 + x241 + x242  = 0
r_99: - 1.0 x213 + x243 + x244 + x245  = 0
r_100: - 1.0 x214 + x246 + x247  = 0
r_101: - 1.0 x216 + x248  = 0
r_102: - 1.0 x217 - 1.0 x219 - 1.0 x247 + x249  = 0
r_103: - 1.0 x218 - 1.0 x221 - 1.0 x235 + x250  = 0
r_104: - 1.0 x220 - 1.0 x222 - 1.0 x224 + x251  = 0
r_105: - 1.0 x223 - 1.0 x226 - 1.0 x238 + x252  = 0
r_106: - 1.0 x225 - 1.0 x227 - 1.0 x229 + x253  = 0
r_107: - 1.0 x228 - 1.0 x231 - 1.0 x241 + x254  = 0
r_108: - 1.0 x230 - 1.0 x232 + x255  = 0
r_109: - 1.0 x233 - 1.0 x244 + x256  = 0
r_110: - 1.0 x234 + x257  = 0
r_111: - 1.0 x236 - 1.0 x237 + x258  = 0
r_112: - 1.0 x239 - 1.0 x240 + x259  = 0
r_113: - 1.0 x242 - 1.0 x243 + x260  = 0
r_114: - 1.0 x245 + x261  = 0
r_115: - 1.0 x246 + x262  = 0
r_116: - 1.0 x248 + x263 + x264  = 0
r_117: - 1.0 x249 - 1.0 x251 - 1.0 x253 - 1.0 x255 + x265 + x266  = 0
r_118: - 1.0 x250 - 1.0 x252 - 1.0 x254 - 1.0 x256 + x267 + x268  = 0
r_119: - 1.0 x257 + x269 + x270  = 0
r_120: - 1.0 x258 - 1.0 x259 - 1.0 x260 - 1.0 x261 + x271 + x272  = 0
r_121: - 1.0 x262 + x273 + x274  = 0
r_122: - 1.0 x263 - 1.0 x267 - 1.0 x269 - 1.0 x271 + x275 + x276 + x277  = 0
r_123: - 1.0 x264 - 1.0 x268 - 1.0 x270 - 1.0 x272 + x278 + x279 + x280  = 0
r_124: - 1.0 x265 - 1.0 x273 + x281 + x282 + x283  = 0
r_125: - 1.0 x266 - 1.0 x274 + x284 + x285 + x286  = 0
r_126: - 1.0 x275 - 1.0 x281 + x287 + x288 + x289  = 0
r_127: - 1.0 x276 - 1.0 x282 + x290 + x291 + x292  = 0
r_128: - 1.0 x277 - 1.0 x278 - 1.0 x283 - 1.0 x284 + x293 + x294 + x295  = 0
r_129: - 1.0 x279 - 1.0 x285 + x296 + x297 + x298  = 0
r_130: - 1.0 x280 - 1.0 x286 + x299 + x300 + x301  = 0
r_131: - 1.0 x287 + x302 + x303 + x304  = 0
r_132: - 1.0 x288 - 1.0 x290 + x305 + x306 + x307  = 0
r_133: - 1.0 x289 - 1.0 x293 + x308 + x309 + x310  = 0
r_134: - 1.0 x291 + x311 + x312  = 0
r_135: - 1.0 x292 - 1.0 x294 - 1.0 x296 + x313 + x314 + x315  = 0
r_136: - 1.0 x295 - 1.0 x299 + x316 + x317 + x318  = 0
r_137: - 1.0 x297 + x319 + x320  = 0
r_138: - 1.0 x298 - 1.0 x300 + x321 + x322 + x323  = 0
r_139: - 1.0 x301 + x324 + x325 + x326  = 0
r_140: - 1.0 x302 + x327 + x328  = 0
r_141: - 1.0 x303 - 1.0 x305 + x329 + x330  = 0
r_142: - 1.0 x304 - 1.0 x308 + x331 + x332  = 0
r_143: - 1.0 x306 - 1.0 x311 + x333  = 0
r_144: - 1.0 x307 - 1.0 x309 - 1.0 x313 + x334 + x335  = 0
r_145: - 1.0 x310 - 1.0 x316 + x336 + x337  = 0
r_146: - 1.0 x312 - 1.0 x314 - 1.0 x319 + x338  = 0
r_147: - 1.0 x315 - 1.0 x317 - 1.0 x321 + x339 + x340  = 0
r_148: - 1.0 x318 - 1.0 x324 + x341 + x342  = 0
r_149: - 1.0 x320 - 1.0 x322 + x343  = 0
r_150: - 1.0 x323 - 1.0 x325 + x344 + x345  = 0
r_151: - 1.0 x326 + x346 + x347  = 0
r_152: - 1.0 x327 + x348 + x349 + x350  = 0
r_153: - 1.0 x328 + x351 + x352 + x353  = 0
r_154: - 1.0 x329 - 1.0 x333 - 1.0 x334 - 1.0 x338 - 1.0 x339 - 1.0 x343 - 1.0 x344 + x354 + x355  = 0
r_155: - 1.0 x330 - 1.0 x331 - 1.0 x335 - 1.0 x336 - 1.0 x340 - 1.0 x341 - 1.0 x345 - 1.0 x346 + x356 + x357 + x358  = 0
r_156: - 1.0 x332 - 1.0 x337 - 1.0 x342 - 1.0 x347 + x359 + x360 + x361  = 0
r_157: - 1.0 x348 - 1.0 x356 + x362 + x363 + x364  = 0
r_158: - 1.0 x349 - 1.0 x355 - 1.0 x357 + x365 + x366  = 0
r_159: - 1.0 x350 - 1.0 x352 - 1.0 x358 - 1.0 x360 + x367 + x368 + x369  = 0
r_160: - 1.0 x351 - 1.0 x359 + x370 + x371 + x372  = 0
r_161: - 1.0 x353 - 1.0 x361 + x373 + x374 + x375  = 0
r_162: - 1.0 x354 + x376 + x377  = 0
r_163: - 1.0 x362 + x378 + x379  = 0
r_164: - 1.0 x363 - 1.0 x365 - 1.0 x377 + x380 + x381  = 0
r_165: - 1.0 x364 - 1.0 x367 - 1.0 x371 + x382 + x383  = 0
r_166: - 1.0 x366 - 1.0 x368 + x384 + x385  = 0
r_167: - 1.0 x369 - 1.0 x374 + x386 + x387  = 0
r_168: - 1.0 x370 + x388 + x389  = 0
r_169: - 1.0 x372 - 1.0 x373 + x390 + x391  = 0
r_170: - 1.0 x375 + x392 + x393  = 0
r_171: - 1.0 x376 + x394 + x395  = 0
r_172: - 1.0 x378 + x396 + x397  = 0
r_173: - 1.0 x379 - 1.0 x382 + x398 + x399  = 0
r_174: - 1.0 x380 - 1.0 x395 + x400 + x401  = 0
r_175: - 1.0 x381 - 1.0 x384 + x402 + x403  = 0
r_176: - 1.0 x383 - 1.0 x386 + x404 + x405  = 0
r_177: - 1.0 x385 + x406 + x407  = 0
r_178: - 1.0 x387 + x408 + x409  = 0
r_179: - 1.0 x388 + x410 + x411  = 0
r_180: - 1.0 x389 - 1.0 x390 + x412 + x413  = 0
r_181: - 1.0 x391 - 1.0 x392 + x414 + x415  = 0
r_182: - 1.0 x393 + x416 + x417  = 0
r_183: - 1.0 x394 + x418 + x419  = 0
r_184: - 1.0 x396 - 1.0 x410 + x420 + x421  = 0
r_185: - 1.0 x397 - 1.0 x398 - 1.0 x411 - 1.0 x412 + x422 + x423  = 0
r_186: - 1.0 x399 - 1.0 x404 - 1.0 x413 - 1.0 x414 + x424 + x425  = 0
r_187: - 1.0 x400 - 1.0 x419 + x426 + x427  = 0
r_188: - 1.0 x401 - 1.0 x402 + x428 + x429  = 0
r_189: - 1.0 x403 - 1.0 x406 + x430 + x431  = 0
r_190: - 1.0 x405 - 1.0 x408 - 1.0 x415 - 1.0 x416 + x432 + x433  = 0
r_191: - 1.0 x407 + x434 + x435  = 0
r_192: - 1.0 x409 - 1.0 x417 + x436 + x437  = 0
r_193: - 1.0 x418 + x438 + x439  = 0
r_194: - 1.0 x420 - 1.0 x438 + x440 + x441 + x442  = 0
r_195: - 1.0 x421 - 1.0 x439 + x443 + x444 + x445  = 0
r_196: - 1.0 x422 - 1.0 x424 - 1.0 x426 - 1.0 x428 - 1.0 x430 - 1.0 x432 - 1.0 x434 - 1.0 x436 + x446 + x447 + x448  = 0
r_197: - 1.0 x423 - 1.0 x425 - 1.0 x427 - 1.0 x429 - 1.0 x431 - 1.0 x433 - 1.0 x435 - 1.0 x437 + x449 + x450 + x451  = 0
r_198: - 1.0 x440 - 1.0 x446 + x452 + x453 + x454  = 0
r_199: - 1.0 x441 - 1.0 x447 + x455 + x456  = 0
r_200: - 1.0 x442 - 1.0 x444 - 1.0 x448 - 1.0 x450 + x457 + x458 + x459  = 0
r_201: - 1.0 x443 - 1.0 x449 + x460 + x461 + x462  = 0
r_202: - 1.0 x445 - 1.0 x451 + x463 + x464 + x465  = 0
r_203: - 1.0 x452 + x466 + x467 + x468  = 0
r_204: - 1.0 x453 - 1.0 x455 + x469 + x470  = 0
r_205: - 1.0 x454 - 1.0 x457 - 1.0 x461 + x471 + x472 + x473  = 0
r_206: - 1.0 x456 - 1.0 x458 + x474 + x475  = 0
r_207: - 1.0 x459 - 1.0 x464 + x476 + x477 + x478  = 0
r_208: - 1.0 x460 + x479 + x480 + x481  = 0
r_209: - 1.0 x462 - 1.0 x463 + x482 + x483 + x484  = 0
r_210: - 1.0 x465 + x485 + x486 + x487  = 0
r_211: - 1.0 x466 + x488 + x489 + x490  = 0
r_212: - 1.0 x467 - 1.0 x469 + x491 + x492  = 0
r_213: - 1.0 x468 - 1.0 x471 - 1.0 x480 + x493 + x494 + x495  = 0
r_214: - 1.0 x470 - 1.0 x472 - 1.0 x474 + x496 + x497  = 0
r_215: - 1.0 x473 - 1.0 x476 - 1.0 x483 + x498 + x499 + x500  = 0
r_216: - 1.0 x475 - 1.0 x477 + x501 + x502  = 0
r_217: - 1.0 x478 - 1.0 x486 + x503 + x504 + x505  = 0
r_218: - 1.0 x479 + x506 + x507 + x508  = 0
r_219: - 1.0 x481 - 1.0 x482 + x509 + x510 + x511  = 0
r_220: - 1.0 x484 - 1.0 x485 + x512 + x513 + x514  = 0
r_221: - 1.0 x487 + x515 + x516 + x517  = 0
r_222: - 1.0 x488 + x518 + x519  = 0
r_223: - 1.0 x489 - 1.0 x491 + x520  = 0
r_224: - 1.0 x490 - 1.0 x493 - 1.0 x507 + x521 + x522  = 0
r_225: - 1.0 x492 - 1.0 x494 - 1.0 x496 + x523  = 0
r_226: - 1.0 x495 - 1.0 x498 - 1.0 x510 + x524 + x525  = 0
r_227: - 1.0 x497 - 1.0 x499 - 1.0 x501 + x526  = 0
r_228: - 1.0 x500 - 1.0 x503 - 1.0 x513 + x527 + x528  = 0
r_229: - 1.0 x502 - 1.0 x504 + x529  = 0
r_230: - 1.0 x505 - 1.0 x516 + x530 + x531  = 0
r_231: - 1.0 x506 + x532 + x533  = 0
r_232: - 1.0 x508 - 1.0 x509 + x534 + x535  = 0
r_233: - 1.0 x511 - 1.0 x512 + x536 + x537  = 0
r_234: - 1.0 x514 - 1.0 x515 + x538 + x539  = 0
r_235: - 1.0 x517 + x540 + x541  = 0
r_236: - 1.0 x518 + x542 + x543  = 0
r_237: - 1.0 x519 - 1.0 x532 + x544 + x545  = 0
r_238: - 1.0 x520 - 1.0 x521 - 1.0 x523 - 1.0 x524 - 1.0 x526 - 1.0 x527 - 1.0 x529 - 1.0 x530 + x546 + x547  = 0
r_239: - 1.0 x522 - 1.0 x525 - 1.0 x528 - 1.0 x531 - 1.0 x534 - 1.0 x536 - 1.0 x538 - 1.0 x540 + x548 + x549  = 0
r_240: - 1.0 x533 + x550 + x551  = 0
r_241: - 1.0 x535 - 1.0 x537 - 1.0 x539 - 1.0 x541 + x552 + x553  = 0
r_242: - 1.0 x542 - 1.0 x546 + x554 + x555  = 0
r_243: - 1.0 x543 - 1.0 x547 + x556 + x557  = 0
r_244: - 1.0 x544 - 1.0 x548 + x558 + x559  = 0
r_245: - 1.0 x545 - 1.0 x549 + x560 + x561  = 0
r_246: - 1.0 x550 - 1.0 x552 + x562 + x563  = 0
r_247: - 1.0 x551 - 1.0 x553 + x564 + x565  = 0
r_248: - 1.0 x554 + x566 + x567 + x568  = 0
r_249: - 1.0 x555 - 1.0 x556 + x569 + x570 + x571  = 0
r_250: - 1.0 x557 + x572 + x573 + x574  = 0
r_251: - 1.0 x558 - 1.0 x562 + x575 + x576 + x577  = 0
r_252: - 1.0 x559 - 1.0 x560 - 1.0 x563 - 1.0 x564 + x578 + x579 + x580  = 0
r_253: - 1.0 x561 - 1.0 x565 + x581 + x582 + x583  = 0
r_254: - 1.0 x566 - 1.0 x575 + x584 + x585 + x586  = 0
r_255: - 1.0 x567 - 1.0 x576 + x587 + x588 + x589  = 0
r_256: - 1.0 x568 - 1.0 x569 - 1.0 x577 - 1.0 x578 + x590 + x591 + x592  = 0
r_257: - 1.0 x570 - 1.0 x579 + x593 + x594 + x595  = 0
r_258: - 1.0 x571 - 1.0 x572 - 1.0 x580 - 1.0 x581 + x596 + x597 + x598  = 0
r_259: - 1.0 x573 - 1.0 x582 + x599 + x600 + x601  = 0
r_260: - 1.0 x574 - 1.0 x583 + x602 + x603 + x604  = 0
r_261: - 1.0 x584 + x605 + x606  = 0
r_262: - 1.0 x585 - 1.0 x587 + x607 + x608  = 0
r_263: - 1.0 x586 - 1.0 x590 + x609 + x610  = 0
r_264: - 1.0 x588 + x611  = 0
r_265: - 1.0 x589 - 1.0 x591 - 1.0 x593 + x612 + x613  = 0
r_266: - 1.0 x592 - 1.0 x596 + x614 + x615  = 0
r_267: - 1.0 x594 + x616  = 0
r_268: - 1.0 x595 - 1.0 x597 - 1.0 x599 + x617 + x618  = 0
r_269: - 1.0 x598 - 1.0 x602 + x619 + x620  = 0
r_270: - 1.0 x600 + x621  = 0
r_271: - 1.0 x601 - 1.0 x603 + x622 + x623  = 0
r_272: - 1.0 x604 + x624 + x625  = 0
r_273: - 1.0 x605 + x626 + x627 + x628  = 0
r_274: - 1.0 x606 + x629 + x630 + x631  = 0
r_275: - 1.0 x607 - 1.0 x611 - 1.0 x612 - 1.0 x616 - 1.0 x617 - 1.0 x621 - 1.0 x622 + x632 + x633  = 0
r_276: - 1.0 x608 - 1.0 x609 - 1.0 x613 - 1.0 x614 - 1.0 x618 - 1.0 x619 - 1.0 x623 - 1.0 x624 + x634 + x635 + x636  = 0
r_277: - 1.0 x610 - 1.0 x615 - 1.0 x620 - 1.0 x625 + x637 + x638 + x639  = 0
r_278: - 1.0 x626 - 1.0 x634 + x640 + x641 + x642  = 0
r_279: - 1.0 x627 - 1.0 x633 - 1.0 x635 + x643 + x644  = 0
r_280: - 1.0 x628 - 1.0 x630 - 1.0 x636 - 1.0 x638 + x645 + x646 + x647  = 0
r_281: - 1.0 x629 - 1.0 x637 + x648 + x649 + x650  = 0
r_282: - 1.0 x631 - 1.0 x639 + x651 + x652 + x653  = 0
r_283: - 1.0 x632 + x654 + x655  = 0
r_284: - 1.0 x640 + x656 + x657 + x658  = 0
r_285: - 1.0 x641 - 1.0 x643 - 1.0 x655 + x659 + x660  = 0
r_286: - 1.0 x642 - 1.0 x645 - 1.0 x649 + x661 + x662 + x663  = 0
r_287: - 1.0 x644 - 1.0 x646 + x664 + x665  = 0
r_288: - 1.0 x647 - 1.0 x652 + x666 + x667 + x668  = 0
r_289: - 1.0 x648 + x669 + x670 + x671  = 0
r_290: - 1.0 x650 - 1.0 x651 + x672 + x673 + x674  = 0
r_291: - 1.0 x653 + x675 + x676 + x677  = 0
r_292: - 1.0 x654 + x678 + x679  = 0
r_293: - 1.0 x656 + x680 + x681  = 0
r_294: - 1.0 x657 - 1.0 x659 - 1.0 x679 + x682 + x683  = 0
r_295: - 1.0 x658 - 1.0 x661 - 1.0 x670 + x684 + x685  = 0
r_296: - 1.0 x660 - 1.0 x662 - 1.0 x664 + x686 + x687  = 0
r_297: - 1.0 x663 - 1.0 x666 - 1.0 x673 + x688 + x689  = 0
r_298: - 1.0 x665 - 1.0 x667 + x690 + x691  = 0
r_299: - 1.0 x668 - 1.0 x676 + x692 + x693  = 0
r_300: - 1.0 x669 + x694 + x695  = 0
r_301: - 1.0 x671 - 1.0 x672 + x696 + x697  = 0
r_302: - 1.0 x674 - 1.0 x675 + x698 + x699  = 0
r_303: - 1.0 x677 + x700 + x701  = 0
r_304: - 1.0 x678 + x702 + x703  = 0
r_305: - 1.0 x680 + x704  = 0
r_306: - 1.0 x681 - 1.0 x684 + x705  = 0
r_307: - 1.0 x682 - 1.0 x703 + x706  = 0
r_308: - 1.0 x683 - 1.0 x686 + x707  = 0
r_309: - 1.0 x685 - 1.0 x688 + x708  = 0
r_310: - 1.0 x687 - 1.0 x690 + x709  = 0
r_311: - 1.0 x689 - 1.0 x692 + x710  = 0
r_312: - 1.0 x691 + x711  = 0
r_313: - 1.0 x693 + x712  = 0
r_314: - 1.0 x694 + x713  = 0
r_315: - 1.0 x695 - 1.0 x696 + x714  = 0
r_316: - 1.0 x697 - 1.0 x698 + x715  = 0
r_317: - 1.0 x699 - 1.0 x700 + x716  = 0
r_318: - 1.0 x701 + x717  = 0
r_319: - 1.0 x702 + x718  = 0
r_320: - 1.0 x704 - 1.0 x713 + x719 + x720 + x721  = 0
r_321: - 1.0 x705 - 1.0 x708 - 1.0 x710 - 1.0 x712 - 1.0 x714 - 1.0 x715 - 1.0 x716 - 1.0 x717 + x722 + x723 + x724  = 0
r_322: - 1.0 x706 - 1.0 x707 - 1.0 x709 - 1.0 x711 + x725 + x726 + x727  = 0
r_00: + x1 + x2 + x3 + x4 + x5 + x6 + x7 + x8 + x9 + x10 + x11 + x12 + x13 + x14 + x15 + x16 + x17 + x18 + x19 + x20 + x21 + x22 + x23 + x24 + x25 + x26 + x27 + x28 + x29 + x30 + x31 + x32 + x33 + x34 + x35 + x36 + x37 + x38 + x39 + x40 + x41 + x42 + x43 + x44 + x45 + x46 + x47 + x48 + x49 + x50 + x51 + x52 + x53 + x54 + x55 + x56 + x57 + x58 + x59 + x60 + x61 + x62 + x63 + x64 + x65 + x66 + x67 + x68 + x69 + x70 + x71 + x72 + x73 + x74 + x75 + x76 + x77 + x78 + x79 + x80 + x81 + x82 + x83 + x84 + x85 + x86 + x87 + x88 + x89 + x90 + x91 + x92 + x93 + x94 + x95 + x96 + x97 + x98 + x99 + x100 + x101 + x102 + x103 + x104 + x105 + x106 + x107 + x108 + x109 + x110 + x111 + x112 + x113 + x114 + x115 + x116 + x117 + x118 + x119 + x120 + x121 + x122 + x123 + x124 + x125 + x126 + x127 + x128 + x129 + x130 + x131 + x132 + x133 + x134 + x135 + x136 + x137 + x138 + x139 + x140 + x141 + x142 + x143 + x144 + x145 + x146 + x147 + x148 + x149 + x150 + x151 + x152 + x153 + x154 + x155 + x156 + x157 + x158 + x159 + x160 + x161 + x162 + x163 + x164 + x165 + x166 + x167 + x168 + x169 + x170 + x171 + x172 + x173 + x174 + x175 + x176 + x177 + x178 + x179 + x180 + x181 + x182 + x183 + x184 + x185 + x186 + x187 + x188 + x189 + x190 + x191 + x192 + x193 + x194 + x195 + x196 + x197 + x198 + x199 + x200 + x201 + x202 + x203 + x204 + x205 + x206 + x207 + x208 + x209 + x210 + x211 + x212 + x213 + x214 + x215 + x216 + x217 + x218 + x219 + x220 + x221 + x222 + x223 + x224 + x225 + x226 + x227 + x228 + x229 + x230 + x231 + x232 + x233 + x234 + x235 + x236 + x237 + x238 + x239 + x240 + x241 + x242 + x243 + x244 + x245 + x246 + x247 + x248 + x249 + x250 + x251 + x252 + x253 + x254 + x255 + x256 + x257 + x258 + x259 + x260 + x261 + x262 + x263 + x264 + x265 + x266 + x267 + x268 + x269 + x270 + x271 + x272 + x273 + x274 + x275 + x276 + x277 + x278 + x279 + x280 + x281 + x282 + x283 + x284 + x285 + x286 + x287 + x288 + x289 + x290 + x291 + x292 + x293 + x294 + x295 + x296 + x297 + x298 + x299 + x300 + x301 + x302 + x303 + x304 + x305 + x306 + x307 + x308 + x309 + x310 + x311 + x312 + x313 + x314 + x315 + x316 + x317 + x318 + x319 + x320 + x321 + x322 + x323 + x324 + x325 + x326 + x327 + x328 + x329 + x330 + x331 + x332 + x333 + x334 + x335 + x336 + x337 + x338 + x339 + x340 + x341 + x342 + x343 + x344 + x345 + x346 + x347 + x348 + x349 + x350 + x351 + x352 + x353 + x354 + x355 + x356 + x357 + x358 + x359 + x360 + x361 + x362 + x363 + x364 + x365 + x366 + x367 + x368 + x369 + x370 + x371 + x372 + x373 + x374 + x375 + x376 + x377 + x378 + x379 + x380 + x381 + x382 + x383 + x384 + x385 + x386 + x387 + x388 + x389 + x390 + x391 + x392 + x393 + x394 + x395 + x396 + x397 + x398 + x399 + x400 + x401 + x402 + x403 + x404 + x405 + x406 + x407 + x408 + x409 + x410 + x411 + x412 + x413 + x414 + x415 + x416 + x417 + x418 + x419 + x420 + x421 + x422 + x423 + x424 + x425 + x426 + x427 + x428 + x429 + x430 + x431 + x432 + x433 + x434 + x435 + x436 + x437 + x438 + x439 + x440 + x441 + x442 + x443 + x444 + x445 + x446 + x447 + x448 + x449 + x450 + x451 + x452 + x453 + x454 + x455 + x456 + x457 + x458 + x459 + x460 + x461 + x462 + x463 + x464 + x465 + x466 + x467 + x468 + x469 + x470 + x471 + x472 + x473 + x474 + x475 + x476 + x477 + x478 + x479 + x480 + x481 + x482 + x483 + x484 + x485 + x486 + x487 + x488 + x489 + x490 + x491 + x492 + x493 + x494 + x495 + x496 + x497 + x498 + x499 + x500 + x501 + x502 + x503 + x504 + x505 + x506 + x507 + x508 + x509 + x510 + x511 + x512 + x513 + x514 + x515 + x516 + x517 + x518 + x519 + x520 + x521 + x522 + x523 + x524 + x525 + x526 + x527 + x528 + x529 + x530 + x531 + x532 + x533 + x534 + x535 + x536 + x537 + x538 + x539 + x540 + x541 + x542 + x543 + x544 + x545 + x546 + x547 + x548 + x549 + x550 + x551 + x552 + x553 + x554 + x555 + x556 + x557 + x558 + x559 + x560 + x561 + x562 + x563 + x564 + x565 + x566 + x567 + x568 + x569 + x570 + x571 + x572 + x573 + x574 + x575 + x576 + x577 + x578 + x579 + x580 + x581 + x582 + x583 + x584 + x585 + x586 + x587 + x588 + x589 + x590 + x591 + x592 + x593 + x594 + x595 + x596 + x597 + x598 + x599 + x600 + x601 + x602 + x603 + x604 + x605 + x606 + x607 + x608 + x609 + x610 + x611 + x612 + x613 + x614 + x615 + x616 + x617 + x618 + x619 + x620 + x621 + x622 + x623 + x624 + x625 + x626 + x627 + x628 + x629 + x630 + x631 + x632 + x633 + x634 + x635 + x636 + x637 + x638 + x639 + x640 + x641 + x642 + x643 + x644 + x645 + x646 + x647 + x648 + x649 + x650 + x651 + x652 + x653 + x654 + x655 + x656 + x657 + x658 + x659 + x660 + x661 + x662 + x663 + x664 + x665 + x666 + x667 + x668 + x669 + x670 + x671 + x672 + x673 + x674 + x675 + x676 + x677 + x678 + x679 + x680 + x681 + x682 + x683 + x684 + x685 + x686 + x687 + x688 + x689 + x690 + x691 + x692 + x693 + x694 + x695 + x696 + x697 + x698 + x699 + x700 + x701 + x702 + x703 + x704 + x705 + x706 + x707 + x708 + x709 + x710 + x711 + x712 + x713 + x714 + x715 + x716 + x717 + x718 + x719 + x720 + x721 + x722 + x723 + x724 + x725 + x726 + x727 = 1
End